c File: instances/22_0.50_3.col
c
c Description: Random graph of size 22 vertices and P(0.49999999999999994) of edges between any two vertices.
p col 22 231
e 1 2
e 1 3
e 1 4
e 1 7
e 1 9
e 1 10
e 1 11
e 1 13
e 1 14
e 1 15
e 1 16
e 1 17
e 1 21
e 1 22
e 2 4
e 2 5
e 2 10
e 2 11
e 2 13
e 2 15
e 2 17
e 2 18
e 2 19
e 2 21
e 3 7
e 3 8
e 3 10
e 3 11
e 3 12
e 3 13
e 3 14
e 3 15
e 3 16
e 3 18
e 4 5
e 4 6
e 4 8
e 4 11
e 4 13
e 4 14
e 4 15
e 4 17
e 4 18
e 4 19
e 4 20
e 4 22
e 5 7
e 5 8
e 5 11
e 5 14
e 5 19
e 5 21
e 5 22
e 6 7
e 6 8
e 6 12
e 6 15
e 6 16
e 6 17
e 6 18
e 6 20
e 7 10
e 7 12
e 7 13
e 7 18
e 7 19
e 7 21
e 7 22
e 8 10
e 8 13
e 8 15
e 8 17
e 8 19
e 8 20
e 9 10
e 9 11
e 9 12
e 9 13
e 9 14
e 9 15
e 9 18
e 9 20
e 9 21
e 9 22
e 10 11
e 10 13
e 10 14
e 10 15
e 10 17
e 10 18
e 10 21
e 11 12
e 11 14
e 11 17
e 11 20
e 11 21
e 11 22
e 12 13
e 12 14
e 12 15
e 12 18
e 13 15
e 13 18
e 13 21
e 14 18
e 14 19
e 15 17
e 15 20
e 16 17
e 16 18
e 16 19
e 17 19
e 17 20
e 18 21
e 19 20
e 19 21
e 20 21
e 20 22
e 21 22